p edge 128 2113
e 1 128 3
e 1 122 8
e 1 120 1
e 1 119 9
e 1 117 1
e 1 114 2
e 1 110 4
e 1 109 7
e 1 108 10
e 1 105 8
e 1 103 7
e 1 102 7
e 1 98 8
e 1 90 6
e 1 88 4
e 1 80 4
e 1 79 3
e 1 76 3
e 1 74 2
e 1 72 9
e 1 70 8
e 1 67 6
e 1 64 5
e 1 57 8
e 1 55 3
e 1 47 10
e 1 44 2
e 1 37 7
e 1 33 1
e 1 32 1
e 1 31 6
e 1 27 9
e 1 12 8
e 2 128 9
e 2 127 4
e 2 126 4
e 2 123 5
e 2 122 7
e 2 118 5
e 2 116 8
e 2 115 7
e 2 113 2
e 2 111 1
e 2 107 3
e 2 99 1
e 2 96 5
e 2 94 1
e 2 93 7
e 2 92 2
e 2 91 8
e 2 89 2
e 2 88 3
e 2 86 10
e 2 84 3
e 2 83 9
e 2 82 2
e 2 76 2
e 2 75 9
e 2 71 10
e 2 70 7
e 2 69 8
e 2 68 1
e 2 66 6
e 2 64 9
e 2 62 2
e 2 61 1
e 2 60 4
e 2 58 10
e 2 53 10
e 2 52 5
e 2 46 3
e 2 45 4
e 2 41 3
e 2 38 3
e 2 36 2
e 2 30 7
e 2 28 3
e 2 25 3
e 2 24 2
e 2 23 1
e 2 22 7
e 2 20 4
e 2 13 6
e 2 10 5
e 2 8 6
e 2 7 8
e 2 6 6
e 3 124 5
e 3 104 5
e 3 87 5
e 3 85 9
e 3 81 5
e 3 63 4
e 3 59 10
e 3 50 10
e 3 49 3
e 3 48 8
e 3 42 8
e 3 35 5
e 3 32 6
e 3 26 10
e 3 21 6
e 3 18 3
e 3 16 8
e 3 11 10
e 3 9 2
e 3 5 5
e 3 4 4
e 4 124 1
e 4 104 1
e 4 77 3
e 4 59 8
e 4 54 3
e 4 49 5
e 4 48 2
e 4 40 1
e 4 29 7
e 4 26 9
e 4 21 3
e 4 18 2
e 4 15 9
e 4 9 8
e 4 5 9
e 5 104 3
e 5 87 6
e 5 81 5
e 5 77 7
e 5 63 8
e 5 48 6
e 5 37 5
e 5 35 4
e 5 33 8
e 5 32 5
e 5 29 4
e 5 21 5
e 5 16 10
e 5 12 1
e 5 9 7
e 6 127 9
e 6 122 3
e 6 113 8
e 6 111 4
e 6 107 3
e 6 106 7
e 6 96 4
e 6 95 9
e 6 93 3
e 6 89 2
e 6 84 1
e 6 76 6
e 6 75 5
e 6 71 3
e 6 70 1
e 6 67 1
e 6 64 6
e 6 60 8
e 6 56 5
e 6 41 7
e 6 23 10
e 6 13 10
e 6 10 4
e 7 128 10
e 7 126 9
e 7 125 6
e 7 123 6
e 7 115 4
e 7 114 8
e 7 113 8
e 7 110 1
e 7 107 5
e 7 101 4
e 7 100 10
e 7 99 8
e 7 94 9
e 7 92 10
e 7 91 6
e 7 88 2
e 7 83 6
e 7 78 10
e 7 76 1
e 7 73 3
e 7 69 10
e 7 68 9
e 7 66 3
e 7 62 1
e 7 58 4
e 7 52 7
e 7 46 3
e 7 45 8
e 7 43 3
e 7 39 8
e 7 28 8
e 7 27 4
e 7 25 5
e 7 20 4
e 7 19 2
e 7 14 8
e 7 8 10
e 8 128 10
e 8 126 7
e 8 125 6
e 8 123 3
e 8 122 2
e 8 117 4
e 8 115 3
e 8 114 9
e 8 113 6
e 8 110 1
e 8 108 8
e 8 107 7
e 8 105 10
e 8 102 5
e 8 101 5
e 8 100 1
e 8 99 7
e 8 97 2
e 8 94 7
e 8 92 9
e 8 91 6
e 8 90 5
e 8 88 3
e 8 83 6
e 8 79 6
e 8 78 5
e 8 76 10
e 8 75 1
e 8 74 9
e 8 73 2
e 8 69 3
e 8 68 9
e 8 66 9
e 8 65 10
e 8 64 10
e 8 62 8
e 8 58 1
e 8 52 10
e 8 45 4
e 8 43 2
e 8 39 6
e 8 28 8
e 8 27 9
e 8 20 3
e 8 19 2
e 8 14 7
e 8 10 6
e 9 124 1
e 9 104 4
e 9 87 10
e 9 85 4
e 9 81 4
e 9 77 4
e 9 59 2
e 9 54 3
e 9 49 3
e 9 48 1
e 9 42 9
e 9 40 4
e 9 29 3
e 9 26 1
e 9 21 10
e 9 18 3
e 9 15 10
e 10 127 1
e 10 126 8
e 10 123 6
e 10 118 5
e 10 116 10
e 10 115 6
e 10 113 9
e 10 111 8
e 10 107 2
e 10 99 1
e 10 96 7
e 10 94 6
e 10 93 8
e 10 92 3
e 10 91 9
e 10 88 7
e 10 86 8
e 10 84 2
e 10 83 2
e 10 82 9
e 10 76 2
e 10 75 8
e 10 71 7
e 10 69 9
e 10 68 3
e 10 66 4
e 10 62 3
e 10 61 4
e 10 58 9
e 10 53 4
e 10 52 4
e 10 46 3
e 10 45 8
e 10 41 9
e 10 38 10
e 10 36 8
e 10 30 9
e 10 28 3
e 10 25 4
e 10 24 5
e 10 22 1
e 10 20 8
e 10 13 1
e 11 104 3
e 11 85 9
e 11 81 6
e 11 63 1
e 11 59 7
e 11 50 3
e 11 49 1
e 11 42 7
e 11 17 4
e 12 120 9
e 12 117 6
e 12 112 9
e 12 110 3
e 12 109 3
e 12 108 4
e 12 103 8
e 12 102 1
e 12 98 7
e 12 90 5
e 12 87 7
e 12 80 6
e 12 79 5
e 12 74 3
e 12 55 9
e 12 48 8
e 12 47 4
e 12 44 6
e 12 37 2
e 12 35 3
e 12 33 5
e 12 32 1
e 12 31 1
e 12 16 7
e 13 127 1
e 13 123 6
e 13 122 7
e 13 113 2
e 13 111 4
e 13 107 3
e 13 106 1
e 13 96 5
e 13 95 3
e 13 93 1
e 13 89 8
e 13 84 7
e 13 76 1
e 13 75 2
e 13 71 1
e 13 70 10
e 13 67 7
e 13 64 8
e 13 60 3
e 13 56 6
e 13 45 8
e 13 41 7
e 13 30 10
e 13 24 6
e 13 23 10
e 14 128 4
e 14 126 6
e 14 125 7
e 14 123 8
e 14 115 10
e 14 114 5
e 14 101 10
e 14 100 2
e 14 99 7
e 14 97 1
e 14 94 2
e 14 92 3
e 14 91 4
e 14 88 10
e 14 83 2
e 14 78 10
e 14 76 7
e 14 73 10
e 14 69 4
e 14 68 7
e 14 66 2
e 14 65 9
e 14 62 8
e 14 52 3
e 14 45 8
e 14 43 2
e 14 39 5
e 14 28 9
e 14 27 2
e 14 19 8
e 15 124 5
e 15 112 3
e 15 104 8
e 15 77 8
e 15 54 4
e 15 49 8
e 15 48 3
e 15 40 1
e 15 29 4
e 15 26 10
e 15 21 4
e 15 18 8
e 16 125 10
e 16 121 8
e 16 117 6
e 16 114 3
e 16 110 8
e 16 105 6
e 16 102 4
e 16 97 9
e 16 90 5
e 16 87 6
e 16 80 8
e 16 79 10
e 16 74 4
e 16 65 5
e 16 48 6
e 16 47 10
e 16 37 3
e 16 35 6
e 16 33 1
e 16 32 4
e 17 85 2
e 17 81 10
e 17 63 9
e 17 59 5
e 17 50 7
e 17 49 7
e 17 42 3
e 18 124 5
e 18 104 9
e 18 77 8
e 18 59 6
e 18 54 7
e 18 49 1
e 18 40 9
e 18 29 2
e 18 26 1
e 18 21 3
e 19 128 5
e 19 126 6
e 19 125 3
e 19 123 10
e 19 117 3
e 19 115 5
e 19 114 3
e 19 110 10
e 19 108 7
e 19 105 1
e 19 101 8
e 19 100 1
e 19 99 7
e 19 97 2
e 19 92 7
e 19 91 10
e 19 90 6
e 19 88 4
e 19 79 6
e 19 78 5
e 19 76 7
e 19 74 3
e 19 73 8
e 19 68 9
e 19 66 5
e 19 65 9
e 19 62 8
e 19 52 4
e 19 51 8
e 19 43 10
e 19 39 6
e 19 28 3
e 19 27 7
e 20 128 7
e 20 127 6
e 20 126 8
e 20 123 10
e 20 118 8
e 20 116 9
e 20 115 10
e 20 113 7
e 20 111 5
e 20 107 7
e 20 99 5
e 20 96 7
e 20 94 2
e 20 93 10
e 20 92 3
e 20 91 9
e 20 88 9
e 20 86 3
e 20 84 1
e 20 83 6
e 20 82 1
e 20 76 9
e 20 75 7
e 20 69 6
e 20 68 10
e 20 66 6
e 20 62 8
e 20 61 6
e 20 58 9
e 20 53 4
e 20 52 2
e 20 46 8
e 20 45 1
e 20 43 7
e 20 41 8
e 20 38 2
e 20 36 9
e 20 30 2
e 20 28 8
e 20 25 5
e 20 24 6
e 20 22 10
e 21 124 8
e 21 104 9
e 21 81 4
e 21 77 6
e 21 59 4
e 21 54 2
e 21 49 5
e 21 48 10
e 21 42 7
e 21 40 7
e 21 29 5
e 21 26 7
e 22 126 3
e 22 123 5
e 22 118 9
e 22 116 2
e 22 115 7
e 22 113 5
e 22 94 10
e 22 93 6
e 22 86 1
e 22 83 1
e 22 82 1
e 22 69 6
e 22 66 3
e 22 61 1
e 22 58 4
e 22 53 2
e 22 52 2
e 22 46 2
e 22 45 8
e 22 41 10
e 22 38 9
e 22 36 9
e 22 30 6
e 22 25 1
e 22 24 1
e 23 127 1
e 23 122 7
e 23 111 8
e 23 107 5
e 23 106 5
e 23 96 10
e 23 95 2
e 23 89 1
e 23 84 10
e 23 76 8
e 23 75 1
e 23 71 2
e 23 70 1
e 23 67 5
e 23 64 7
e 23 60 5
e 23 57 10
e 23 56 9
e 23 55 10
e 24 127 3
e 24 126 1
e 24 123 4
e 24 118 1
e 24 116 9
e 24 115 2
e 24 113 1
e 24 111 7
e 24 107 7
e 24 99 1
e 24 96 6
e 24 94 5
e 24 93 3
e 24 92 7
e 24 91 3
e 24 88 4
e 24 86 10
e 24 84 1
e 24 83 5
e 24 82 4
e 24 75 6
e 24 71 5
e 24 69 6
e 24 68 2
e 24 66 2
e 24 62 5
e 24 61 1
e 24 58 2
e 24 53 5
e 24 52 9
e 24 46 8
e 24 45 7
e 24 41 7
e 24 38 9
e 24 36 4
e 24 30 2
e 24 28 1
e 24 25 8
e 25 127 4
e 25 126 1
e 25 123 7
e 25 118 1
e 25 116 2
e 25 115 1
e 25 113 6
e 25 111 5
e 25 107 1
e 25 99 2
e 25 94 8
e 25 93 2
e 25 92 3
e 25 91 6
e 25 86 5
e 25 84 6
e 25 83 2
e 25 82 1
e 25 75 9
e 25 69 4
e 25 68 10
e 25 66 7
e 25 62 7
e 25 61 8
e 25 58 9
e 25 53 10
e 25 52 6
e 25 46 3
e 25 45 4
e 25 41 6
e 25 38 7
e 25 36 9
e 25 30 5
e 25 28 3
e 26 124 4
e 26 104 5
e 26 77 1
e 26 59 1
e 26 54 1
e 26 49 1
e 26 40 8
e 26 29 4
e 27 128 3
e 27 127 2
e 27 126 9
e 27 125 10
e 27 123 9
e 27 122 8
e 27 117 3
e 27 115 6
e 27 114 1
e 27 113 6
e 27 110 10
e 27 109 10
e 27 108 9
e 27 107 7
e 27 105 10
e 27 103 9
e 27 102 9
e 27 101 8
e 27 100 6
e 27 99 9
e 27 98 2
e 27 97 7
e 27 92 5
e 27 91 10
e 27 90 6
e 27 88 5
e 27 83 4
e 27 80 8
e 27 79 9
e 27 78 4
e 27 76 10
e 27 75 6
e 27 74 10
e 27 73 7
e 27 70 5
e 27 69 7
e 27 68 6
e 27 67 1
e 27 66 6
e 27 64 6
e 27 62 10
e 27 57 6
e 27 55 1
e 27 52 5
e 27 45 7
e 27 43 6
e 27 39 10
e 27 31 3
e 27 28 1
e 28 128 9
e 28 127 1
e 28 126 5
e 28 125 10
e 28 123 10
e 28 118 3
e 28 116 1
e 28 115 1
e 28 114 6
e 28 113 2
e 28 111 3
e 28 110 3
e 28 108 4
e 28 107 6
e 28 101 2
e 28 100 9
e 28 99 4
e 28 96 8
e 28 94 6
e 28 93 2
e 28 92 2
e 28 91 9
e 28 88 8
e 28 86 8
e 28 83 9
e 28 82 4
e 28 79 2
e 28 78 1
e 28 76 9
e 28 75 3
e 28 74 8
e 28 73 2
e 28 69 1
e 28 68 2
e 28 66 3
e 28 64 5
e 28 62 7
e 28 61 9
e 28 58 5
e 28 53 4
e 28 52 8
e 28 46 6
e 28 45 3
e 28 43 7
e 28 41 1
e 28 39 1
e 28 38 7
e 28 36 5
e 28 30 2
e 29 124 6
e 29 112 1
e 29 104 5
e 29 77 8
e 29 54 5
e 29 49 8
e 29 48 2
e 29 40 1
e 30 127 8
e 30 126 1
e 30 123 5
e 30 118 2
e 30 116 6
e 30 115 2
e 30 113 6
e 30 111 2
e 30 107 6
e 30 99 1
e 30 96 7
e 30 94 4
e 30 93 6
e 30 92 10
e 30 91 5
e 30 88 1
e 30 86 8
e 30 84 10
e 30 83 2
e 30 82 3
e 30 76 1
e 30 75 7
e 30 69 4
e 30 68 7
e 30 66 6
e 30 62 2
e 30 61 6
e 30 58 8
e 30 53 10
e 30 52 1
e 30 46 9
e 30 45 4
e 30 41 6
e 30 38 3
e 30 36 5
e 31 122 7
e 31 120 7
e 31 119 6
e 31 117 6
e 31 110 1
e 31 109 1
e 31 108 4
e 31 103 1
e 31 102 4
e 31 98 6
e 31 90 6
e 31 80 4
e 31 79 3
e 31 74 2
e 31 72 4
e 31 67 1
e 31 64 10
e 31 57 4
e 31 55 4
e 31 47 6
e 31 44 1
e 31 37 5
e 31 33 2
e 31 32 10
e 32 120 10
e 32 117 6
e 32 112 7
e 32 109 3
e 32 102 5
e 32 98 8
e 32 90 10
e 32 87 4
e 32 80 8
e 32 79 5
e 32 74 9
e 32 48 4
e 32 47 1
e 32 37 2
e 32 35 3
e 32 33 10
e 33 125 1
e 33 121 2
e 33 120 1
e 33 117 2
e 33 114 1
e 33 110 8
e 33 109 1
e 33 108 1
e 33 105 1
e 33 102 2
e 33 97 8
e 33 90 9
e 33 87 6
e 33 80 2
e 33 79 3
e 33 78 7
e 33 74 2
e 33 65 3
e 33 48 3
e 33 47 4
e 33 39 2
e 33 37 2
e 33 35 4
e 34 125 7
e 34 121 9
e 34 97 9
e 34 65 9
e 34 51 2
e 34 35 9
e 35 121 3
e 35 117 5
e 35 105 3
e 35 97 8
e 35 87 10
e 35 74 2
e 35 65 1
e 35 63 4
e 35 48 3
e 36 127 5
e 36 126 10
e 36 123 6
e 36 118 2
e 36 116 1
e 36 115 7
e 36 113 9
e 36 111 4
e 36 94 10
e 36 93 4
e 36 86 9
e 36 83 9
e 36 82 5
e 36 75 5
e 36 69 1
e 36 66 5
e 36 61 1
e 36 58 6
e 36 53 1
e 36 52 8
e 36 46 10
e 36 45 1
e 36 41 4
e 36 38 7
e 37 120 7
e 37 112 1
e 37 109 3
e 37 103 4
e 37 102 9
e 37 98 10
e 37 87 10
e 37 80 4
e 37 72 5
e 37 48 9
e 37 47 6
e 37 44 4
e 38 127 5
e 38 126 6
e 38 123 9
e 38 118 9
e 38 116 9
e 38 115 2
e 38 113 6
e 38 111 5
e 38 107 3
e 38 99 4
e 38 96 4
e 38 94 6
e 38 93 1
e 38 92 6
e 38 91 8
e 38 86 9
e 38 84 10
e 38 83 2
e 38 82 5
e 38 75 7
e 38 69 3
e 38 68 6
e 38 66 4
e 38 62 1
e 38 61 5
e 38 58 9
e 38 53 10
e 38 52 4
e 38 46 10
e 38 45 7
e 38 41 2
e 39 128 7
e 39 125 4
e 39 121 3
e 39 117 7
e 39 114 7
e 39 110 9
e 39 109 2
e 39 108 4
e 39 105 6
e 39 102 10
e 39 101 5
e 39 100 2
e 39 99 2
e 39 97 10
e 39 92 8
e 39 91 7
e 39 90 2
e 39 88 10
e 39 80 5
e 39 79 4
e 39 78 5
e 39 76 8
e 39 74 2
e 39 73 5
e 39 68 10
e 39 66 7
e 39 65 3
e 39 62 5
e 39 52 7
e 39 51 8
e 39 43 1
e 40 124 5
e 40 104 5
e 40 77 3
e 40 59 10
e 40 54 2
e 40 49 4
e 41 127 6
e 41 126 7
e 41 123 1
e 41 118 3
e 41 116 6
e 41 115 4
e 41 113 5
e 41 111 8
e 41 107 6
e 41 99 6
e 41 96 9
e 41 94 3
e 41 93 5
e 41 92 4
e 41 86 3
e 41 84 9
e 41 83 8
e 41 82 8
e 41 75 5
e 41 71 4
e 41 69 10
e 41 68 4
e 41 66 3
e 41 61 3
e 41 58 6
e 41 53 10
e 41 52 10
e 41 46 10
e 41 45 4
e 42 104 4
e 42 85 10
e 42 81 1
e 42 63 3
e 42 59 5
e 42 50 3
e 42 49 2
e 43 128 1
e 43 126 8
e 43 125 6
e 43 123 10
e 43 122 7
e 43 117 1
e 43 115 4
e 43 114 2
e 43 113 2
e 43 110 1
e 43 109 9
e 43 108 5
e 43 107 8
e 43 105 9
e 43 102 8
e 43 101 5
e 43 100 7
e 43 99 2
e 43 97 2
e 43 94 9
e 43 92 5
e 43 91 2
e 43 90 8
e 43 88 9
e 43 83 4
e 43 80 3
e 43 79 3
e 43 78 8
e 43 76 5
e 43 74 2
e 43 73 9
e 43 69 7
e 43 68 4
e 43 66 4
e 43 65 6
e 43 64 10
e 43 62 2
e 43 52 9
e 43 45 3
e 44 122 1
e 44 120 2
e 44 119 1
e 44 110 2
e 44 109 7
e 44 108 4
e 44 103 6
e 44 102 7
e 44 98 1
e 44 90 9
e 44 80 2
e 44 79 4
e 44 72 6
e 44 70 10
e 44 67 10
e 44 64 7
e 44 57 2
e 44 55 9
e 44 47 6
e 45 128 6
e 45 127 10
e 45 126 7
e 45 123 3
e 45 118 10
e 45 116 2
e 45 115 2
e 45 113 1
e 45 111 2
e 45 107 7
e 45 100 3
e 45 99 6
e 45 96 10
e 45 94 1
e 45 93 6
e 45 92 3
e 45 91 10
e 45 88 3
e 45 86 5
e 45 84 1
e 45 83 10
e 45 82 4
e 45 76 6
e 45 75 10
e 45 73 3
e 45 71 9
e 45 69 7
e 45 68 3
e 45 66 4
e 45 62 5
e 45 61 3
e 45 58 2
e 45 53 7
e 45 52 3
e 45 46 7
e 46 127 10
e 46 126 3
e 46 123 10
e 46 118 10
e 46 116 6
e 46 115 7
e 46 113 3
e 46 111 7
e 46 107 5
e 46 99 5
e 46 94 10
e 46 93 6
e 46 92 7
e 46 91 2
e 46 86 5
e 46 83 5
e 46 82 3
e 46 75 2
e 46 69 4
e 46 68 8
e 46 66 8
e 46 62 3
e 46 61 7
e 46 58 9
e 46 53 3
e 46 52 4
e 47 120 7
e 47 119 5
e 47 112 4
e 47 109 4
e 47 103 7
e 47 102 4
e 47 98 7
e 47 80 8
e 47 72 1
e 47 57 4
e 47 55 4
e 48 112 4
e 48 87 6
e 48 77 1
e 48 54 9
e 49 124 9
e 49 104 9
e 49 85 1
e 49 81 4
e 49 77 5
e 49 63 3
e 49 59 5
e 49 54 4
e 49 50 3
e 50 104 2
e 50 85 1
e 50 81 2
e 50 63 3
e 50 59 7
e 51 125 4
e 51 121 6
e 51 117 6
e 51 114 9
e 51 105 8
e 51 101 1
e 51 100 4
e 51 97 6
e 51 78 9
e 51 74 7
e 51 73 4
e 51 65 6
e 52 128 3
e 52 127 6
e 52 126 1
e 52 123 9
e 52 118 5
e 52 116 5
e 52 115 1
e 52 114 4
e 52 113 2
e 52 111 9
e 52 110 1
e 52 108 8
e 52 107 1
e 52 101 4
e 52 100 8
e 52 99 4
e 52 96 5
e 52 94 3
e 52 93 5
e 52 92 6
e 52 91 9
e 52 88 5
e 52 86 7
e 52 84 10
e 52 83 3
e 52 82 4
e 52 79 10
e 52 78 4
e 52 76 9
e 52 75 4
e 52 73 8
e 52 69 1
e 52 68 1
e 52 66 2
e 52 64 3
e 52 62 7
e 52 61 1
e 52 58 3
e 52 53 5
e 53 127 3
e 53 126 9
e 53 123 7
e 53 118 9
e 53 116 3
e 53 115 5
e 53 113 3
e 53 111 8
e 53 107 9
e 53 99 5
e 53 96 7
e 53 94 3
e 53 93 6
e 53 92 10
e 53 91 7
e 53 88 6
e 53 86 10
e 53 84 6
e 53 83 10
e 53 82 9
e 53 75 9
e 53 69 10
e 53 68 9
e 53 66 10
e 53 62 9
e 53 61 10
e 53 58 7
e 54 124 8
e 54 112 2
e 54 104 6
e 54 77 10
e 55 128 7
e 55 122 6
e 55 120 9
e 55 119 1
e 55 110 2
e 55 109 8
e 55 108 5
e 55 103 10
e 55 102 8
e 55 98 1
e 55 90 9
e 55 88 10
e 55 80 9
e 55 79 9
e 55 76 3
e 55 72 6
e 55 70 1
e 55 67 8
e 55 64 3
e 55 57 1
e 56 127 4
e 56 122 9
e 56 111 4
e 56 106 4
e 56 96 4
e 56 95 3
e 56 89 8
e 56 84 10
e 56 71 6
e 56 70 6
e 56 67 3
e 56 64 4
e 56 60 9
e 57 128 10
e 57 122 7
e 57 120 2
e 57 119 5
e 57 110 3
e 57 109 3
e 57 108 2
e 57 103 2
e 57 102 5
e 57 98 8
e 57 90 7
e 57 89 10
e 57 88 9
e 57 80 10
e 57 79 6
e 57 76 9
e 57 72 7
e 57 70 9
e 57 67 5
e 57 64 8
e 58 127 5
e 58 126 8
e 58 123 7
e 58 118 4
e 58 116 1
e 58 115 9
e 58 113 3
e 58 111 10
e 58 107 5
e 58 99 10
e 58 94 8
e 58 93 9
e 58 92 8
e 58 91 5
e 58 88 8
e 58 86 4
e 58 84 10
e 58 83 5
e 58 82 9
e 58 75 5
e 58 69 1
e 58 68 4
e 58 66 7
e 58 62 7
e 58 61 6
e 59 124 10
e 59 104 1
e 59 85 10
e 59 81 3
e 59 63 3
e 60 127 3
e 60 122 8
e 60 111 5
e 60 107 4
e 60 106 4
e 60 96 4
e 60 95 7
e 60 93 9
e 60 89 7
e 60 84 6
e 60 75 9
e 60 71 1
e 60 70 6
e 60 67 10
e 60 64 6
e 61 127 4
e 61 126 5
e 61 123 4
e 61 118 6
e 61 116 4
e 61 115 8
e 61 113 6
e 61 111 8
e 61 107 5
e 61 94 9
e 61 93 4
e 61 92 3
e 61 86 4
e 61 84 10
e 61 83 4
e 61 82 5
e 61 75 4
e 61 69 8
e 61 68 8
e 61 66 6
e 62 128 7
e 62 127 1
e 62 126 7
e 62 125 9
e 62 123 7
e 62 122 7
e 62 117 7
e 62 116 8
e 62 115 6
e 62 114 4
e 62 113 3
e 62 110 4
e 62 108 4
e 62 107 6
e 62 105 4
e 62 101 5
e 62 100 6
e 62 99 7
e 62 97 2
e 62 94 8
e 62 93 3
e 62 92 6
e 62 91 2
e 62 90 1
e 62 88 9
e 62 83 10
e 62 82 8
e 62 79 8
e 62 78 10
e 62 76 3
e 62 75 8
e 62 74 4
e 62 73 4
e 62 69 4
e 62 68 4
e 62 66 2
e 62 64 10
e 63 104 7
e 63 85 3
e 63 81 3
e 64 128 8
e 64 127 8
e 64 123 3
e 64 122 2
e 64 119 5
e 64 114 1
e 64 110 3
e 64 109 6
e 64 108 1
e 64 107 3
e 64 103 7
e 64 100 4
e 64 98 7
e 64 96 6
e 64 92 5
e 64 91 5
e 64 90 8
e 64 89 1
e 64 88 7
e 64 84 10
e 64 80 6
e 64 79 3
e 64 76 6
e 64 75 7
e 64 71 3
e 64 70 10
e 64 68 5
e 64 67 8
e 65 125 10
e 65 121 9
e 65 117 3
e 65 114 2
e 65 105 8
e 65 102 9
e 65 101 7
e 65 100 8
e 65 97 4
e 65 90 7
e 65 79 4
e 65 78 10
e 65 74 3
e 65 73 1
e 66 128 6
e 66 127 8
e 66 126 3
e 66 123 10
e 66 118 5
e 66 116 5
e 66 115 8
e 66 114 2
e 66 113 3
e 66 111 8
e 66 110 8
e 66 107 5
e 66 101 4
e 66 100 8
e 66 99 4
e 66 96 8
e 66 94 6
e 66 93 9
e 66 92 5
e 66 91 4
e 66 88 3
e 66 86 2
e 66 84 4
e 66 83 3
e 66 82 2
e 66 76 3
e 66 75 1
e 66 73 2
e 66 69 7
e 66 68 3
e 67 128 4
e 67 122 4
e 67 120 8
e 67 119 5
e 67 110 1
e 67 109 7
e 67 108 1
e 67 103 3
e 67 98 6
e 67 96 2
e 67 90 9
e 67 89 9
e 67 88 7
e 67 80 7
e 67 79 4
e 67 76 6
e 67 72 8
e 67 71 1
e 67 70 7
e 67 68 5
e 68 128 4
e 68 127 1
e 68 126 6
e 68 125 8
e 68 123 8
e 68 122 9
e 68 116 2
e 68 115 8
e 68 114 10
e 68 113 9
e 68 111 2
e 68 110 5
e 68 109 4
e 68 108 3
e 68 107 8
e 68 102 2
e 68 101 5
e 68 100 1
e 68 99 7
e 68 96 1
e 68 94 6
e 68 93 1
e 68 92 1
e 68 91 1
e 68 90 4
e 68 88 9
e 68 84 9
e 68 83 5
e 68 82 7
e 68 79 3
e 68 78 3
e 68 76 1
e 68 75 10
e 68 74 10
e 68 73 9
e 68 71 2
e 68 70 8
e 68 69 9
e 69 128 9
e 69 127 8
e 69 126 6
e 69 123 9
e 69 118 10
e 69 116 7
e 69 115 2
e 69 113 9
e 69 111 7
e 69 107 3
e 69 100 8
e 69 99 8
e 69 96 2
e 69 94 4
e 69 93 4
e 69 92 7
e 69 91 4
e 69 88 6
e 69 86 9
e 69 84 5
e 69 83 10
e 69 82 5
e 69 76 6
e 69 75 9
e 69 73 6
e 70 128 2
e 70 127 7
e 70 122 2
e 70 111 10
e 70 110 5
e 70 109 3
e 70 108 7
e 70 107 1
e 70 106 5
e 70 103 9
e 70 98 3
e 70 96 10
e 70 95 2
e 70 92 1
e 70 89 5
e 70 88 2
e 70 84 6
e 70 76 2
e 70 75 10
e 70 71 2
e 71 127 2
e 71 126 7
e 71 123 8
e 71 122 2
e 71 113 10
e 71 111 5
e 71 107 8
e 71 106 9
e 71 96 4
e 71 95 10
e 71 93 6
e 71 92 1
e 71 89 8
e 71 88 4
e 71 84 3
e 71 76 4
e 71 75 9
e 72 120 5
e 72 119 6
e 72 109 3
e 72 108 3
e 72 103 2
e 72 102 8
e 72 98 10
e 72 80 10
e 73 128 4
e 73 126 6
e 73 125 3
e 73 123 2
e 73 117 2
e 73 115 5
e 73 114 6
e 73 110 10
e 73 108 1
e 73 105 4
e 73 101 9
e 73 100 4
e 73 99 5
e 73 97 6
e 73 92 4
e 73 91 1
e 73 90 10
e 73 88 3
e 73 83 7
e 73 79 3
e 73 78 10
e 73 76 4
e 73 74 9
e 74 128 6
e 74 125 8
e 74 121 2
e 74 117 10
e 74 114 8
e 74 110 6
e 74 109 5
e 74 108 3
e 74 105 8
e 74 102 3
e 74 101 6
e 74 100 7
e 74 98 3
e 74 97 10
e 74 91 8
e 74 90 5
e 74 88 5
e 74 80 8
e 74 79 10
e 74 78 7
e 74 76 3
e 75 128 8
e 75 127 5
e 75 126 6
e 75 123 1
e 75 122 3
e 75 118 10
e 75 116 3
e 75 115 5
e 75 113 2
e 75 111 5
e 75 107 8
e 75 99 9
e 75 96 1
e 75 94 10
e 75 93 7
e 75 92 7
e 75 91 9
e 75 89 6
e 75 88 6
e 75 86 3
e 75 84 1
e 75 83 9
e 75 82 1
e 75 76 3
e 76 128 3
e 76 127 1
e 76 126 8
e 76 125 8
e 76 123 2
e 76 122 7
e 76 117 3
e 76 115 1
e 76 114 5
e 76 113 2
e 76 111 2
e 76 110 3
e 76 109 2
e 76 108 8
e 76 107 3
e 76 105 7
e 76 102 7
e 76 101 8
e 76 100 5
e 76 99 4
e 76 96 8
e 76 94 10
e 76 93 7
e 76 92 2
e 76 91 3
e 76 90 9
e 76 89 9
e 76 88 2
e 76 83 7
e 76 80 7
e 76 79 2
e 76 78 6
e 77 124 3
e 77 112 5
e 77 104 9
e 78 128 10
e 78 125 3
e 78 121 6
e 78 117 9
e 78 114 2
e 78 110 9
e 78 109 8
e 78 108 5
e 78 105 6
e 78 102 4
e 78 101 8
e 78 100 7
e 78 99 10
e 78 97 7
e 78 92 3
e 78 91 9
e 78 90 6
e 78 88 5
e 78 80 6
e 78 79 7
e 79 128 4
e 79 125 7
e 79 117 7
e 79 114 9
e 79 110 2
e 79 109 1
e 79 108 7
e 79 105 8
e 79 103 10
e 79 102 7
e 79 101 10
e 79 100 8
e 79 99 10
e 79 98 8
e 79 97 10
e 79 92 9
e 79 91 6
e 79 90 8
e 79 88 8
e 79 80 1
e 80 128 7
e 80 125 2
e 80 120 5
e 80 119 6
e 80 117 2
e 80 114 6
e 80 110 4
e 80 109 2
e 80 108 2
e 80 105 6
e 80 103 9
e 80 102 6
e 80 100 2
e 80 98 5
e 80 97 5
e 80 90 9
e 80 88 1
e 81 104 2
e 81 85 3
e 82 127 2
e 82 126 6
e 82 123 6
e 82 118 3
e 82 116 4
e 82 115 6
e 82 113 2
e 82 111 6
e 82 99 1
e 82 94 4
e 82 93 2
e 82 92 5
e 82 86 10
e 82 84 4
e 82 83 9
e 83 128 5
e 83 127 8
e 83 126 7
e 83 123 3
e 83 118 1
e 83 116 9
e 83 115 1
e 83 113 5
e 83 111 1
e 83 107 7
e 83 100 9
e 83 99 8
e 83 94 2
e 83 93 3
e 83 92 5
e 83 91 8
e 83 88 6
e 83 86 5
e 84 127 3
e 84 126 7
e 84 123 8
e 84 122 10
e 84 116 2
e 84 115 5
e 84 113 3
e 84 111 10
e 84 107 9
e 84 106 4
e 84 96 3
e 84 95 8
e 84 94 2
e 84 93 4
e 84 92 9
e 84 89 1
e 84 86 2
e 85 104 5
e 86 127 8
e 86 126 5
e 86 123 4
e 86 118 9
e 86 116 9
e 86 115 8
e 86 113 6
e 86 111 9
e 86 94 5
e 86 93 10
e 86 92 4
e 88 128 6
e 88 127 9
e 88 126 2
e 88 125 9
e 88 123 7
e 88 122 9
e 88 117 1
e 88 116 2
e 88 115 3
e 88 114 1
e 88 113 6
e 88 110 9
e 88 109 7
e 88 108 3
e 88 107 10
e 88 105 10
e 88 102 2
e 88 101 5
e 88 100 4
e 88 99 7
e 88 96 7
e 88 94 10
e 88 93 6
e 88 92 10
e 88 91 8
e 88 90 5
e 89 127 3
e 89 122 9
e 89 111 1
e 89 107 6
e 89 106 9
e 89 96 10
e 89 95 7
e 89 93 2
e 90 128 7
e 90 125 6
e 90 120 10
e 90 117 10
e 90 114 1
e 90 110 7
e 90 109 6
e 90 108 10
e 90 105 10
e 90 103 10
e 90 102 3
e 90 101 8
e 90 100 1
e 90 98 2
e 90 97 7
e 90 92 7
e 90 91 3
e 91 128 4
e 91 127 7
e 91 126 7
e 91 125 7
e 91 123 7
e 91 122 6
e 91 117 2
e 91 116 3
e 91 115 8
e 91 114 10
e 91 113 9
e 91 110 9
e 91 108 8
e 91 107 1
e 91 105 9
e 91 101 10
e 91 100 3
e 91 99 7
e 91 97 8
e 91 94 5
e 91 93 9
e 91 92 10
e 92 128 7
e 92 127 10
e 92 126 9
e 92 123 1
e 92 122 8
e 92 118 6
e 92 116 10
e 92 115 4
e 92 114 5
e 92 113 3
e 92 111 9
e 92 110 8
e 92 108 4
e 92 107 3
e 92 101 8
e 92 100 8
e 92 99 6
e 92 96 7
e 92 94 7
e 92 93 2
e 93 127 7
e 93 126 2
e 93 123 9
e 93 118 5
e 93 116 2
e 93 115 1
e 93 113 7
e 93 111 6
e 93 107 4
e 93 99 7
e 93 96 10
e 93 94 7
e 94 128 3
e 94 127 6
e 94 126 1
e 94 123 6
e 94 118 1
e 94 116 7
e 94 115 5
e 94 113 4
e 94 111 4
e 94 107 2
e 94 99 3
e 95 127 9
e 95 122 7
e 95 106 1
e 95 96 9
e 96 127 4
e 96 126 5
e 96 123 8
e 96 122 2
e 96 116 7
e 96 115 7
e 96 113 10
e 96 111 2
e 96 107 5
e 96 106 7
e 97 128 4
e 97 125 3
e 97 121 1
e 97 117 4
e 97 114 6
e 97 110 10
e 97 109 6
e 97 108 1
e 97 105 3
e 97 102 5
e 97 101 2
e 97 100 2
e 98 128 1
e 98 122 2
e 98 120 6
e 98 119 9
e 98 110 4
e 98 109 6
e 98 108 3
e 98 103 3
e 98 102 6
e 99 128 4
e 99 127 3
e 99 126 8
e 99 123 9
e 99 118 7
e 99 116 9
e 99 115 2
e 99 114 7
e 99 113 8
e 99 110 1
e 99 107 6
e 99 101 1
e 99 100 5
e 100 128 10
e 100 126 10
e 100 125 6
e 100 123 5
e 100 117 5
e 100 115 6
e 100 114 7
e 100 110 2
e 100 108 4
e 100 107 4
e 100 105 5
e 100 102 10
e 100 101 4
e 101 128 8
e 101 125 3
e 101 117 9
e 101 115 10
e 101 114 10
e 101 110 9
e 101 105 10
e 102 128 10
e 102 125 7
e 102 120 3
e 102 117 2
e 102 114 3
e 102 110 2
e 102 109 5
e 102 108 6
e 102 105 4
e 102 103 2
e 103 122 10
e 103 120 5
e 103 119 9
e 103 110 8
e 103 109 10
e 103 108 2
e 104 124 10
e 105 128 2
e 105 125 3
e 105 121 8
e 105 117 9
e 105 114 9
e 105 110 8
e 105 109 5
e 105 108 6
e 107 128 3
e 107 127 10
e 107 126 10
e 107 123 2
e 107 122 9
e 107 116 7
e 107 115 7
e 107 113 5
e 107 111 1
e 107 110 7
e 108 128 1
e 108 125 4
e 108 122 7
e 108 120 9
e 108 117 10
e 108 114 8
e 108 110 1
e 108 109 1
e 109 128 10
e 109 122 7
e 109 120 6
e 109 119 10
e 109 117 4
e 109 114 9
e 109 110 10
e 110 128 8
e 110 126 10
e 110 125 4
e 110 123 5
e 110 122 8
e 110 117 8
e 110 114 9
e 111 127 9
e 111 126 6
e 111 123 10
e 111 122 4
e 111 118 3
e 111 116 6
e 111 115 10
e 111 113 3
e 112 120 6
e 113 128 2
e 113 127 3
e 113 126 1
e 113 123 2
e 113 118 4
e 113 116 8
e 113 115 4
e 114 128 8
e 114 126 4
e 114 125 1
e 114 123 6
e 114 117 7
e 114 115 2
e 115 128 2
e 115 127 10
e 115 126 2
e 115 123 2
e 115 118 8
e 115 116 4
e 116 127 7
e 116 126 7
e 116 123 6
e 116 118 1
e 117 128 10
e 117 125 9
e 117 121 3
e 118 126 2
e 118 123 1
e 119 122 9
e 119 120 10
e 121 125 8
e 122 128 3
e 122 127 3
e 123 128 7
e 123 127 6
e 123 126 9
e 125 128 8
e 126 128 5
e 126 127 7